196
8 160 172 180 234 243 244 287 320 321 323 324 339 352 362 381 384 390 395 418 421 433 440 445 448 451 460 480 485 503 508 512 521 522 542 555 556 559 565 576 578 590 608 610 613 615 618 619 624 625 628 633 634 637 638 644 650 653 655 656 666 669 684 689 695 700 702 703 705 713 730 732 735 738 741 748 750 752 759 762 765 768 775 779 787 792 799 801 802 803 804 806 808 814 815 817 825 829 833 839 856 858 859 862 865 867 871 874 879 880 882 883 887 899 901 908 911 917 919 927 929 931 933 934 938 947 949 953 954 958 962 963 972 974 981 982 985 986 988 993 1001 1002 1003 1004 1008 1011 1015 1018 1020 1021 1023 1026 1028 1030 1031 1040 1042 1046 1049 1051 1054 1056 1057 1059 1060 1065 1067 1068 1069 1070 1071 1073 1074 1077 1086 1090 1101 1105 1116 1122 1124 1132 1135 1137 1140 1145 1146 1147 1151 1156 1161 1163 1170 1176 1179 1180
